
%FILE DATA:	Soccer Computational Problem for MiniZinc Models	%
%AUTHOR:	Jack Wall	%
%CONTACT:  	116397063@umail.ucc.ie			%
%LAST UPDATE:	01/29/2020, 10:17:58						%
%DESCRIPTION: 	48 games played with 8 games left				%

n=8; %number of teams

%Games to play
games=[|6,2|7,2|5,6|3,4|4,1|8,7|1,6|8,4|];

%Initial points
iPoints=[12,19,17,9,23,12,18,19];

%POSITION CONSTRAINTS
% [|teamID, operator, position|...]
% operators index:
%  1 for =  operator
%  2 for >  operator
%  3 for >= operator
%  4 for <  operator
%  5 for <= operator
positionConstraints=[|5,4,2|8,4,3|7,4,4|];